<number of tasks>
50

<cycle time>
1000

<order strength>
0.198


<task times>
1 25
2 169
3 64
4 133
5 233
6 112
7 51
8 60
9 126
10 157
11 46
12 244
13 35
14 220
15 198
16 104
17 146
18 175
19 142
20 25
21 274
22 128
23 287
24 49
25 160
26 89
27 56
28 65
29 131
30 79
31 32
32 247
33 115
34 31
35 20
36 170
37 22
38 178
39 252
40 216
41 247
42 132
43 269
44 156
45 310
46 165
47 62
48 49
49 107
50 215

<precedence relations>
1,9
2,8
3,11
3,12
4,13
5,8
5,10
6,7
7,36
8,36
9,14
10,15
10,16
10,21
11,21
11,22
12,17
12,18
12,19
13,20
13,21
14,36
15,24
16,26
17,23
17,25
17,27
18,28
18,32
18,34
23,36
24,32
25,30
26,31
27,33
27,34
27,35
27,36
28,29
29,36
30,38
31,39
32,39
32,40
33,37
33,40
33,41
33,42
36,43
36,44
36,45
36,46
37,47
38,48
43,50
47,49

<end>
